Soluciones/instance10A.out
185010 5.31002
10
2 7 5 3 9 6 1 0 8 4 